161 5
10 10 10 10 10 

0 0 0 0 0 0 5 2 24 46 68 80 
0 0 0 0 0 0 6 3 4 5 7 8 11 
6 1 1 0 0 0 3 16 10 6 
9 6 4 0 0 0 4 22 21 10 9 
7 4 10 0 0 0 4 21 15 10 9 
6 4 3 0 0 0 3 22 21 9 
7 5 6 0 0 0 2 21 10 
6 3 6 0 0 0 2 13 9 
8 6 4 0 0 0 4 20 17 14 12 
9 7 4 0 0 0 4 20 17 13 12 
2 7 4 0 0 0 2 21 15 
8 4 5 0 0 0 1 18 
9 6 4 0 0 0 1 19 
2 6 3 0 0 0 1 19 
3 4 4 0 0 0 1 17 
6 3 9 0 0 0 1 18 
8 5 6 0 0 0 1 23 
2 7 7 0 0 0 1 23 
2 1 7 0 0 0 1 23 
9 10 4 0 0 0 1 23 
5 4 6 0 0 0 1 23 
10 7 3 0 0 0 1 23 
0 0 0 0 0 0 1 126 
0 0 0 0 0 0 8 25 26 27 29 30 31 34 38 
9 2 0 0 1 0 4 43 35 32 28 
6 5 0 0 6 0 5 43 42 37 35 32 
8 6 0 0 5 0 6 44 43 42 41 40 35 
2 5 0 0 4 0 4 44 42 41 33 
10 6 0 0 6 0 5 44 42 41 40 36 
2 10 0 0 4 0 4 42 41 40 35 
6 9 0 0 7 0 3 43 36 32 
9 8 0 0 5 0 3 41 40 39 
10 4 0 0 5 0 2 40 36 
5 2 0 0 3 0 2 40 39 
8 2 0 0 4 0 1 36 
5 5 0 0 5 0 1 39 
2 4 0 0 4 0 1 39 
2 3 0 0 9 0 1 39 
8 6 0 0 4 0 1 45 
4 3 0 0 5 0 1 45 
8 6 0 0 5 0 1 45 
10 1 0 0 6 0 1 45 
5 8 0 0 5 0 1 45 
1 5 0 0 7 0 1 45 
0 0 0 0 0 0 1 126 
0 0 0 0 0 0 5 47 48 49 50 51 
8 0 0 1 1 0 4 59 56 54 53 
6 0 0 5 7 0 3 55 53 52 
7 0 0 4 5 0 5 66 59 58 57 55 
6 0 0 5 3 0 2 58 52 
6 0 0 4 4 0 4 66 60 58 57 
9 0 0 7 4 0 3 66 59 57 
2 0 0 7 9 0 3 60 58 57 
6 0 0 5 6 0 3 60 58 57 
5 0 0 3 3 0 4 65 63 61 60 
2 0 0 6 5 0 4 66 64 63 60 
2 0 0 4 8 0 4 65 64 63 62 
9 0 0 9 5 0 3 65 64 61 
8 0 0 8 5 0 3 63 61 60 
2 0 0 2 8 0 1 62 
6 0 0 5 9 0 1 62 
1 0 0 5 5 0 1 67 
10 0 0 4 2 0 1 67 
10 0 0 4 2 0 1 67 
6 0 0 9 2 0 1 67 
9 0 0 3 7 0 1 67 
0 0 0 0 0 0 1 126 
0 0 0 0 0 0 3 69 70 73 
9 0 0 0 1 0 3 74 72 71 
7 0 0 0 4 0 3 78 74 72 
2 0 0 0 8 0 4 78 77 76 75 
8 0 0 0 6 0 3 77 76 75 
6 0 0 0 6 0 3 78 77 75 
6 0 0 0 7 0 2 76 75 
1 0 0 0 3 0 1 79 
10 0 0 0 7 0 1 79 
8 0 0 0 5 0 1 79 
10 0 0 0 3 0 1 79 
0 0 0 0 0 0 2 102 114 
0 0 0 0 0 0 6 81 84 87 89 99 100 
2 0 0 1 0 1 2 98 82 
9 0 0 8 0 5 4 97 91 88 83 
5 0 0 6 0 10 4 96 95 90 86 
3 0 0 3 0 8 2 94 85 
5 0 0 6 0 4 2 91 88 
4 0 0 4 0 5 2 93 92 
6 0 0 3 0 2 2 94 90 
3 0 0 4 0 2 1 90 
4 0 0 4 0 3 1 94 
8 0 0 5 0 8 1 101 
2 0 0 3 0 5 1 101 
5 0 0 5 0 8 1 101 
10 0 0 7 0 8 1 101 
5 0 0 4 0 3 1 101 
9 0 0 8 0 4 1 101 
5 0 0 8 0 5 1 101 
1 0 0 3 0 4 1 101 
5 0 0 10 0 5 1 101 
6 0 0 3 0 5 1 101 
5 0 0 5 0 5 1 101 
0 0 0 0 0 0 1 126 
0 0 0 0 0 0 4 103 104 105 107 
1 1 0 0 0 0 4 112 109 108 106 
4 2 0 0 0 0 3 111 109 108 
8 5 0 0 0 0 2 109 106 
3 8 0 0 0 0 1 110 
5 9 0 0 0 0 1 108 
1 6 0 0 0 0 1 113 
4 5 0 0 0 0 1 113 
5 4 0 0 0 0 1 113 
3 3 0 0 0 0 1 113 
10 7 0 0 0 0 1 113 
0 0 0 0 0 0 1 126 
0 0 0 0 0 0 5 115 116 117 119 124 
4 0 1 0 0 0 3 123 122 118 
4 0 8 0 0 0 3 122 121 120 
8 0 4 0 0 0 2 121 120 
3 0 8 0 0 0 1 120 
2 0 3 0 0 0 1 120 
9 0 6 0 0 0 1 125 
2 0 7 0 0 0 1 125 
4 0 3 0 0 0 1 125 
3 0 3 0 0 0 1 125 
2 0 7 0 0 0 1 125 
0 0 0 0 0 0 1 126 
0 0 0 0 0 0 3 127 128 131 
6 0 1 0 0 0 4 136 132 130 129 
3 0 9 0 0 0 3 135 132 129 
1 0 3 0 0 0 2 134 133 
10 0 5 0 0 0 2 135 134 
1 0 7 0 0 0 1 132 
7 0 6 0 0 0 1 133 
3 0 5 0 0 0 1 137 
10 0 5 0 0 0 1 137 
5 0 3 0 0 0 1 137 
5 0 6 0 0 0 1 137 
0 0 0 0 0 0 1 138 
0 0 0 0 0 0 4 139 140 141 143 
5 1 0 0 0 0 4 148 147 144 142 
10 2 0 0 0 0 3 148 147 142 
1 5 0 0 0 0 3 148 144 142 
9 5 0 0 0 0 2 146 145 
4 4 0 0 0 0 2 147 146 
4 8 0 0 0 0 1 145 
3 4 0 0 0 0 1 149 
4 8 0 0 0 0 1 149 
3 7 0 0 0 0 1 149 
2 6 0 0 0 0 1 149 
0 0 0 0 0 0 1 150 
0 0 0 0 0 0 5 151 152 153 155 160 
9 0 0 1 0 0 2 156 154 
3 0 0 5 0 0 2 159 158 
9 0 0 6 0 0 2 157 156 
2 0 0 6 0 0 1 157 
5 0 0 5 0 0 1 156 
2 0 0 6 0 0 1 161 
5 0 0 9 0 0 1 161 
5 0 0 3 0 0 1 161 
7 0 0 3 0 0 1 161 
1 0 0 6 0 0 1 161 
0 0 0 0 0 0 0 
